c Result of efficient AIG-to-CNF conversion using package CNF
p cnf 635 2326
-2 -3 -211 359 0
-2 3 211 359 0
2 -359 0
2 -3 211 0
2 3 -211 0
3 630 4 -102 0
3 -630 4 -14 0
-3 -4 0
-3 -630 14 0
-3 630 102 0
-4 603 604 5 10 0
4 -603 0
4 -10 0
4 -5 0
4 -604 0
-5 6 7 8 9 0
5 -9 0
5 -6 0
5 -8 0
5 -7 0
-6 609 610 611 612 0
6 -612 0
6 -611 0
6 -609 0
6 -610 0
-7 617 618 0
7 -617 0
7 -618 0
-8 605 606 607 608 0
8 -608 0
8 -607 0
8 -605 0
8 -606 0
-9 621 622 623 624 0
9 -624 0
9 -623 0
9 -621 0
9 -622 0
-10 627 628 11 12 0
10 -627 0
10 -12 0
10 -11 0
10 -628 0
-11 619 620 629 0
11 -619 0
11 -629 0
11 -620 0
-12 614 615 616 13 0
12 -13 0
12 -616 0
12 -614 0
12 -615 0
-13 613 625 626 0
13 -613 0
13 -626 0
13 -625 0
14 631 -632 -89 0
14 631 632 -15 0
-14 -631 0
-14 -632 89 0
-14 632 15 0
15 -633 -16 82 0
15 633 -16 74 0
-15 16 0
-15 -633 -82 0
-15 633 -74 0
-16 634 17 0
16 -634 0
16 -17 0
17 18 62 -63 0
-17 -18 0
-17 -62 0
-17 63 0
-18 19 31 46 55 0
18 -19 0
18 -55 0
18 -46 0
18 -31 0
19 -583 20 0
19 583 -20 0
-19 583 20 0
-19 -583 -20 0
-20 584 21 0
20 -584 0
20 -21 0
-21 585 22 0
21 -585 0
21 -22 0
-22 23 27 29 30 0
22 -30 0
22 -23 0
22 -29 0
22 -27 0
-23 598 24 0
23 -598 0
23 -24 0
-24 599 25 0
24 -599 0
24 -25 0
-25 600 26 0
25 -600 0
25 -26 0
-26 601 602 0
26 -601 0
26 -602 0
-27 590 591 597 28 0
27 -28 0
27 -597 0
27 -590 0
27 -591 0
-28 594 595 596 0
28 -594 0
28 -596 0
28 -595 0
-29 586 592 593 0
29 -586 0
29 -593 0
29 -592 0
-30 587 588 589 0
30 -587 0
30 -589 0
30 -588 0
-31 32 41 0
31 -32 0
31 -41 0
-32 -574 -575 -33 0
-32 574 575 33 0
32 -574 33 0
32 575 -33 0
32 574 -575 0
-33 576 34 0
33 -576 0
33 -34 0
-34 577 35 0
34 -577 0
34 -35 0
-35 578 36 0
35 -578 0
35 -36 0
-36 579 37 0
36 -579 0
36 -37 0
-37 580 38 0
37 -580 0
37 -38 0
-38 581 39 0
38 -581 0
38 -39 0
-39 582 40 0
39 -582 0
39 -40 0
-40 583 20 0
40 -583 0
40 -20 0
-41 42 43 0
41 -42 0
41 -43 0
42 -579 37 0
42 579 -37 0
-42 579 37 0
-42 -579 -37 0
-43 44 45 0
43 -44 0
43 -45 0
44 -581 39 0
44 581 -39 0
-44 581 39 0
-44 -581 -39 0
45 -578 36 0
45 578 -36 0
-45 578 36 0
-45 -578 -36 0
-46 47 48 0
46 -47 0
46 -48 0
47 -580 38 0
47 580 -38 0
-47 580 38 0
-47 -580 -38 0
-48 49 54 0
48 -49 0
48 -54 0
49 -22 52 0
49 23 -22 0
49 -22 50 0
-49 22 0
-49 -23 -50 -52 0
50 -590 -591 -597 -51 0
-50 51 0
-50 590 0
-50 597 0
-50 591 0
51 -594 -595 -596 0
-51 594 0
-51 595 0
-51 596 0
52 -587 -588 -589 -53 0
-52 53 0
-52 587 0
-52 589 0
-52 588 0
53 -586 -592 -593 0
-53 586 0
-53 592 0
-53 593 0
54 -598 24 0
54 598 -24 0
-54 598 24 0
-54 -598 -24 0
-55 56 59 0
55 -56 0
55 -59 0
-56 57 58 0
56 -57 0
56 -58 0
-57 582 -585 -22 40 0
-57 582 585 22 40 0
-57 -582 585 22 -40 0
-57 -582 -585 -22 -40 0
57 -582 40 0
57 582 -40 0
57 -585 22 0
57 585 -22 0
-58 -576 -577 -35 0
-58 576 577 35 0
58 -576 35 0
58 577 -35 0
58 576 -577 0
-59 571 572 573 60 0
-59 -571 -572 -573 -60 0
59 572 -60 0
59 -571 60 0
59 -572 573 0
59 571 -573 0
-60 574 61 0
60 -574 0
60 -61 0
-61 575 33 0
61 -575 0
61 -33 0
62 -584 21 0
62 584 -21 0
-62 584 21 0
-62 -584 -21 0
63 64 -65 0
-63 -64 0
-63 65 0
64 -599 25 0
64 599 -25 0
-64 599 25 0
-64 -599 -25 0
65 66 -67 0
65 -66 -71 0
-65 -66 71 0
-65 66 67 0
66 -600 26 0
66 600 -26 0
-66 600 26 0
-66 -600 -26 0
67 68 -69 0
67 -68 -70 0
-67 -68 70 0
-67 68 69 0
68 601 -602 0
68 -601 602 0
-68 -601 -602 0
-68 601 602 0
69 -595 -602 0
69 -594 602 0
-69 594 602 0
-69 595 -602 0
70 -597 -602 0
70 -596 602 0
-70 596 602 0
-70 597 -602 0
71 68 -72 0
71 -68 -73 0
-71 -68 73 0
-71 68 72 0
72 -599 -602 0
72 -598 602 0
-72 598 602 0
-72 599 -602 0
-73 600 602 0
-73 601 -602 0
73 -601 -602 0
73 -600 602 0
74 -634 75 0
-74 634 0
-74 -75 0
75 18 62 -76 0
-75 -18 0
-75 -62 0
-75 76 0
76 64 -77 0
-76 -64 0
-76 77 0
77 66 -78 0
77 -66 -81 0
-77 -66 81 0
-77 66 78 0
78 68 -79 0
78 -68 -80 0
-78 -68 80 0
-78 68 79 0
79 -596 -602 0
79 -595 602 0
-79 595 602 0
-79 596 -602 0
80 -598 -602 0
80 -597 602 0
-80 597 602 0
-80 598 -602 0
-81 599 602 68 0
-81 600 -602 68 0
81 -68 0
81 -600 -602 0
81 -599 602 0
82 -634 83 0
-82 634 0
-82 -83 0
83 18 62 -84 0
-83 -18 0
-83 -62 0
-83 84 0
84 64 -85 0
-84 -64 0
-84 85 0
85 -66 -86 0
85 66 -87 0
-85 66 87 0
-85 -66 86 0
86 -601 -602 0
-86 601 0
-86 602 0
87 68 -80 0
87 -68 -88 0
-87 -68 88 0
-87 68 80 0
88 -600 -602 0
88 -599 602 0
-88 599 602 0
-88 600 -602 0
89 633 -90 0
89 -633 -96 0
-89 -633 96 0
-89 633 90 0
90 634 -91 0
90 -634 -94 0
-90 -634 94 0
-90 634 91 0
91 18 62 -92 0
-91 -18 0
-91 -62 0
-91 92 0
92 64 -93 0
-92 -64 0
-92 93 0
93 66 -71 0
-93 -66 0
-93 71 0
94 18 62 -95 0
-94 -18 0
-94 -62 0
-94 95 0
95 -599 -600 -602 0
95 -599 -600 -601 0
-95 599 0
-95 600 0
-95 601 602 0
96 97 -99 100 0
-96 -97 0
-96 99 0
-96 -100 0
-97 19 41 98 0
97 -98 0
97 -41 0
97 -19 0
-98 32 59 0
98 -32 0
98 -59 0
99 -600 -601 -602 64 0
-99 602 0
-99 -64 0
-99 600 0
-99 601 0
-100 56 101 0
100 -56 0
100 -101 0
-101 47 48 62 0
101 -47 0
101 -48 0
101 -62 0
102 631 -103 0
102 -631 -185 0
-102 -631 185 0
-102 631 103 0
103 632 -104 0
103 -632 -166 0
-103 -632 166 0
-103 632 104 0
104 633 -105 0
104 -633 -145 0
-104 -633 145 0
-104 633 105 0
105 634 -106 0
105 -634 -129 0
-105 -634 129 0
-105 634 106 0
106 54 107 -114 0
106 -54 -63 107 0
-106 -107 0
-106 54 114 0
-106 -54 63 0
-107 108 43 58 109 0
107 -108 0
107 -109 0
107 -58 0
107 -43 0
108 -574 61 0
108 574 -61 0
-108 574 61 0
-108 -574 -61 0
-109 110 111 113 0
109 -113 0
109 -111 0
109 -110 0
110 -575 33 0
110 575 -33 0
-110 575 33 0
-110 -575 -33 0
-111 19 112 0
111 -19 0
111 -112 0
-112 49 57 62 0
112 -49 0
112 -57 0
112 -62 0
-113 579 580 38 59 0
-113 -579 -580 -38 59 0
113 -579 38 0
113 580 -38 0
113 -59 0
113 579 -580 0
-114 64 115 0
-114 -64 122 0
114 -64 -122 0
114 64 -115 0
-115 -66 119 0
-115 66 116 0
115 66 -116 0
115 -66 -119 0
116 68 -117 0
116 -68 -118 0
-116 -68 118 0
-116 68 117 0
117 -579 -602 0
117 -578 602 0
-117 578 602 0
-117 579 -602 0
118 -581 -602 0
118 -580 602 0
-118 580 602 0
-118 581 -602 0
119 68 -120 0
119 -68 -121 0
-119 -68 121 0
-119 68 120 0
120 -583 -602 0
120 -582 602 0
-120 582 602 0
-120 583 -602 0
121 -585 -602 0
121 -584 602 0
-121 584 602 0
-121 585 -602 0
122 66 -123 0
122 -66 -126 0
-122 -66 126 0
-122 66 123 0
123 68 -124 0
123 -68 -125 0
-123 -68 125 0
-123 68 124 0
124 -587 -602 0
124 -586 602 0
-124 586 602 0
-124 587 -602 0
125 -589 -602 0
125 -588 602 0
-125 588 602 0
-125 589 -602 0
126 68 -127 0
126 -68 -128 0
-126 -68 128 0
-126 68 127 0
127 -591 -602 0
127 -590 602 0
-127 590 602 0
-127 591 -602 0
128 -593 -602 0
128 -592 602 0
-128 592 602 0
-128 593 -602 0
129 54 107 -130 0
129 -54 -76 107 0
-129 -107 0
-129 54 130 0
-129 -54 76 0
-130 64 138 0
-130 -64 131 0
130 -64 -131 0
130 64 -138 0
131 66 -132 0
131 -66 -135 0
-131 -66 135 0
-131 66 132 0
132 68 -133 0
132 -68 -134 0
-132 -68 134 0
-132 68 133 0
133 -588 -602 0
133 -587 602 0
-133 587 602 0
-133 588 -602 0
134 -590 -602 0
134 -589 602 0
-134 589 602 0
-134 590 -602 0
135 68 -136 0
135 -68 -137 0
-135 -68 137 0
-135 68 136 0
136 -592 -602 0
136 -591 602 0
-136 591 602 0
-136 592 -602 0
137 -594 -602 0
137 -593 602 0
-137 593 602 0
-137 594 -602 0
138 66 -139 0
138 -66 -142 0
-138 -66 142 0
-138 66 139 0
139 68 -140 0
139 -68 -141 0
-139 -68 141 0
-139 68 140 0
140 -580 -602 0
140 -579 602 0
-140 579 602 0
-140 580 -602 0
141 -582 -602 0
141 -581 602 0
-141 581 602 0
-141 582 -602 0
142 68 -143 0
142 -68 -144 0
-142 -68 144 0
-142 68 143 0
143 -584 -602 0
143 -583 602 0
-143 583 602 0
-143 584 -602 0
144 -586 -602 0
144 -585 602 0
-144 585 602 0
-144 586 -602 0
145 634 -146 0
145 -634 -158 0
-145 -634 158 0
-145 634 146 0
146 -54 107 -154 0
146 54 107 -147 0
-146 -107 0
-146 -54 154 0
-146 54 147 0
-147 64 151 0
-147 -64 148 0
147 -64 -148 0
147 64 -151 0
148 66 -149 0
148 -66 -150 0
-148 -66 150 0
-148 66 149 0
149 68 -125 0
149 -68 -127 0
-149 -68 127 0
-149 68 125 0
150 -68 -69 0
150 68 -128 0
-150 68 128 0
-150 -68 69 0
151 66 -152 0
151 -66 -153 0
-151 -66 153 0
-151 66 152 0
152 68 -118 0
152 -68 -120 0
-152 -68 120 0
-152 68 118 0
153 68 -121 0
153 -68 -124 0
-153 -68 124 0
-153 68 121 0
154 64 -155 0
-154 -64 0
-154 155 0
155 -66 -156 0
155 66 -157 0
-155 66 157 0
-155 -66 156 0
156 -601 -602 0
156 -600 601 602 0
-156 -601 602 0
-156 601 -602 0
-156 600 602 0
157 68 -70 0
157 -68 -72 0
-157 -68 72 0
-157 68 70 0
158 54 107 -159 0
158 -54 -84 107 0
-158 -107 0
-158 54 159 0
-158 -54 84 0
-159 64 163 0
-159 -64 160 0
159 -64 -160 0
159 64 -163 0
160 66 -161 0
160 -66 -162 0
-160 -66 162 0
-160 66 161 0
161 68 -134 0
161 -68 -136 0
-161 -68 136 0
-161 68 134 0
162 -68 -79 0
162 68 -137 0
-162 68 137 0
-162 -68 79 0
163 66 -164 0
163 -66 -165 0
-163 -66 165 0
-163 66 164 0
164 68 -141 0
164 -68 -143 0
-164 -68 143 0
-164 68 141 0
165 -68 -133 0
165 68 -144 0
-165 68 144 0
-165 -68 133 0
166 633 -167 0
166 -633 -176 0
-166 -633 176 0
-166 633 167 0
167 634 -168 0
167 -634 -172 0
-167 -634 172 0
-167 634 168 0
168 54 107 -169 0
168 -54 -92 107 0
-168 -107 0
-168 54 169 0
-168 -54 92 0
-169 64 171 0
-169 -64 170 0
169 -64 -170 0
169 64 -171 0
170 -66 -67 0
170 66 -126 0
-170 66 126 0
-170 -66 67 0
171 66 -119 0
171 -66 -123 0
-171 -66 123 0
-171 66 119 0
172 54 107 -173 0
172 -54 -95 107 0
-172 -107 0
-172 -54 95 0
-172 54 173 0
173 -64 -174 0
173 64 -175 0
-173 64 175 0
-173 -64 174 0
174 -66 -78 0
174 66 -135 0
-174 66 135 0
-174 -66 78 0
175 -66 -132 0
175 66 -142 0
-175 66 142 0
-175 -66 132 0
176 634 -177 0
176 -634 -181 0
-176 -634 181 0
-176 634 177 0
177 54 107 -178 0
177 -54 -99 107 0
-177 -107 0
-177 -54 99 0
-177 54 178 0
178 -64 -179 0
178 64 -180 0
-178 64 180 0
-178 -64 179 0
179 66 -150 0
179 -66 -157 0
-179 -66 157 0
-179 66 150 0
180 -66 -149 0
180 66 -153 0
-180 66 153 0
-180 -66 149 0
181 54 107 -182 0
181 -54 -99 107 0
-181 -107 0
-181 -54 99 0
-181 54 182 0
182 64 -183 0
182 -64 -184 0
-182 -64 184 0
-182 64 183 0
183 -66 -161 0
183 66 -165 0
-183 66 165 0
-183 -66 161 0
184 -66 -87 0
184 66 -162 0
-184 66 162 0
-184 -66 87 0
185 632 -186 0
185 -632 -198 0
-185 -632 198 0
-185 632 186 0
186 633 -187 0
186 -633 -193 0
-186 -633 193 0
-186 633 187 0
187 634 -188 0
187 -634 -190 0
-187 -634 190 0
-187 634 188 0
188 97 100 -189 0
-188 -97 0
-188 -100 0
-188 189 0
-189 64 122 0
-189 -64 65 0
189 -64 -65 0
189 64 -122 0
190 19 191 -192 0
-190 192 0
-190 -191 0
-190 -19 0
-191 31 55 101 0
191 -31 0
191 -55 0
191 -101 0
192 -64 -77 0
192 64 -131 0
-192 64 131 0
-192 -64 77 0
193 634 -194 0
193 -634 -196 0
-193 -634 196 0
-193 634 194 0
194 19 191 -195 0
-194 195 0
-194 -191 0
-194 -19 0
195 64 -148 0
195 -64 -155 0
-195 -64 155 0
-195 64 148 0
196 19 191 -197 0
-196 197 0
-196 -191 0
-196 -19 0
197 -64 -85 0
197 64 -160 0
-197 64 160 0
-197 -64 85 0
198 633 -199 0
198 -633 -205 0
-198 -633 205 0
-198 633 199 0
199 634 -200 0
199 -634 -202 0
-199 -634 202 0
-199 634 200 0
200 19 191 -201 0
-200 201 0
-200 -191 0
-200 -19 0
201 -64 -93 0
201 64 -170 0
-201 64 170 0
-201 -64 93 0
202 19 191 -203 0
-202 203 0
-202 -191 0
-202 -19 0
203 -64 -204 0
203 64 -174 0
-203 64 174 0
-203 -64 204 0
204 66 -81 0
-204 -66 0
-204 81 0
205 634 -206 0
205 -634 -209 0
-205 -634 209 0
-205 634 206 0
206 19 191 -207 0
-206 207 0
-206 -191 0
-206 -19 0
207 -64 -208 0
207 64 -179 0
-207 64 179 0
-207 -64 208 0
208 -600 -601 -602 0
-208 600 0
-208 601 0
-208 602 0
209 19 191 -210 0
-209 210 0
-209 -191 0
-209 -19 0
210 -64 -208 0
210 64 -184 0
-210 64 184 0
-210 -64 208 0
211 -54 107 -344 0
211 54 107 -212 0
-211 -107 0
-211 -54 344 0
-211 54 212 0
212 64 -213 0
212 -64 -318 0
-212 -64 318 0
-212 64 213 0
213 -66 -214 0
213 66 -282 0
-213 66 282 0
-213 -66 214 0
214 68 -215 0
214 -68 -259 0
-214 -68 259 0
-214 68 215 0
215 602 -216 0
215 -602 -238 0
-215 -602 238 0
-215 602 216 0
216 -630 4 -232 0
216 630 4 -217 0
-216 -4 0
-216 -630 232 0
-216 630 217 0
217 631 -218 0
217 -631 -225 0
-217 -631 225 0
-217 631 218 0
218 632 -219 0
218 -632 -222 0
-218 -632 222 0
-218 632 219 0
219 633 -220 0
219 -633 -221 0
-219 -633 221 0
-219 633 220 0
220 -583 -634 0
220 -582 634 0
-220 582 634 0
-220 583 -634 0
221 -585 -634 0
221 -584 634 0
-221 584 634 0
-221 585 -634 0
222 633 -223 0
222 -633 -224 0
-222 -633 224 0
-222 633 223 0
223 -587 -634 0
223 -586 634 0
-223 586 634 0
-223 587 -634 0
224 -589 -634 0
224 -588 634 0
-224 588 634 0
-224 589 -634 0
225 632 -226 0
225 -632 -229 0
-225 -632 229 0
-225 632 226 0
226 633 -227 0
226 -633 -228 0
-226 -633 228 0
-226 633 227 0
227 -591 -634 0
227 -590 634 0
-227 590 634 0
-227 591 -634 0
228 -593 -634 0
228 -592 634 0
-228 592 634 0
-228 593 -634 0
229 633 -230 0
229 -633 -231 0
-229 -633 231 0
-229 633 230 0
230 -595 -634 0
230 -594 634 0
-230 594 634 0
-230 595 -634 0
231 -597 -634 0
231 -596 634 0
-231 596 634 0
-231 597 -634 0
232 631 -233 0
-232 -631 0
-232 233 0
233 632 -234 0
233 -632 -237 0
-233 -632 237 0
-233 632 234 0
234 633 -235 0
234 -633 -236 0
-234 -633 236 0
-234 633 235 0
235 -599 -634 0
235 -598 634 0
-235 598 634 0
-235 599 -634 0
236 -601 -634 0
236 -600 634 0
-236 600 634 0
-236 601 -634 0
237 -602 633 634 0
-237 602 0
-237 -634 0
-237 -633 0
238 -630 4 -254 0
238 630 4 -239 0
-238 -4 0
-238 -630 254 0
-238 630 239 0
239 631 -240 0
239 -631 -247 0
-239 -631 247 0
-239 631 240 0
240 632 -241 0
240 -632 -244 0
-240 -632 244 0
-240 632 241 0
241 633 -242 0
241 -633 -243 0
-241 -633 243 0
-241 633 242 0
242 -584 -634 0
242 -583 634 0
-242 583 634 0
-242 584 -634 0
243 -586 -634 0
243 -585 634 0
-243 585 634 0
-243 586 -634 0
244 633 -245 0
244 -633 -246 0
-244 -633 246 0
-244 633 245 0
245 -588 -634 0
245 -587 634 0
-245 587 634 0
-245 588 -634 0
246 -590 -634 0
246 -589 634 0
-246 589 634 0
-246 590 -634 0
247 632 -248 0
247 -632 -251 0
-247 -632 251 0
-247 632 248 0
248 633 -249 0
248 -633 -250 0
-248 -633 250 0
-248 633 249 0
249 -592 -634 0
249 -591 634 0
-249 591 634 0
-249 592 -634 0
250 -594 -634 0
250 -593 634 0
-250 593 634 0
-250 594 -634 0
251 633 -252 0
251 -633 -253 0
-251 -633 253 0
-251 633 252 0
252 -596 -634 0
252 -595 634 0
-252 595 634 0
-252 596 -634 0
253 -598 -634 0
253 -597 634 0
-253 597 634 0
-253 598 -634 0
254 631 -255 0
-254 -631 0
-254 255 0
255 632 -256 0
-255 -632 0
-255 256 0
256 633 -257 0
256 -633 -258 0
-256 -633 258 0
-256 633 257 0
257 -600 -634 0
257 -599 634 0
-257 599 634 0
-257 600 -634 0
258 -602 -634 0
258 -601 634 0
-258 601 634 0
-258 602 -634 0
259 602 -260 0
259 -602 -271 0
-259 -602 271 0
-259 602 260 0
260 -630 4 -268 0
260 630 4 -261 0
-260 -4 0
-260 -630 268 0
-260 630 261 0
261 631 -262 0
261 -631 -265 0
-261 -631 265 0
-261 631 262 0
262 632 -263 0
262 -632 -264 0
-262 -632 264 0
-262 632 263 0
263 633 -221 0
263 -633 -223 0
-263 -633 223 0
-263 633 221 0
264 633 -224 0
264 -633 -227 0
-264 -633 227 0
-264 633 224 0
265 632 -266 0
265 -632 -267 0
-265 -632 267 0
-265 632 266 0
266 633 -228 0
266 -633 -230 0
-266 -633 230 0
-266 633 228 0
267 633 -231 0
267 -633 -235 0
-267 -633 235 0
-267 633 231 0
268 631 -269 0
-268 -631 0
-268 269 0
269 632 -270 0
-269 -632 0
-269 270 0
270 633 -236 0
270 -602 -633 634 0
-270 633 236 0
-270 -633 -634 0
-270 602 -633 0
271 -630 4 -279 0
271 630 4 -272 0
-271 -4 0
-271 -630 279 0
-271 630 272 0
272 631 -273 0
272 -631 -276 0
-272 -631 276 0
-272 631 273 0
273 632 -274 0
273 -632 -275 0
-273 -632 275 0
-273 632 274 0
274 633 -243 0
274 -633 -245 0
-274 -633 245 0
-274 633 243 0
275 633 -246 0
275 -633 -249 0
-275 -633 249 0
-275 633 246 0
276 632 -277 0
276 -632 -278 0
-276 -632 278 0
-276 632 277 0
277 633 -250 0
277 -633 -252 0
-277 -633 252 0
-277 633 250 0
278 633 -253 0
278 -633 -257 0
-278 -633 257 0
-278 633 253 0
279 631 -280 0
-279 -631 0
-279 280 0
280 632 -281 0
-280 -632 0
-280 281 0
281 -601 633 634 0
281 -602 633 -634 0
-281 -633 0
-281 602 -634 0
-281 601 634 0
282 68 -283 0
282 -68 -303 0
-282 -68 303 0
-282 68 283 0
283 602 -284 0
283 -602 -294 0
-283 -602 294 0
-283 602 284 0
284 -630 4 -291 0
284 630 4 -285 0
-284 -4 0
-284 -630 291 0
-284 630 285 0
-285 631 286 0
-285 -631 290 0
285 -631 -290 0
285 631 -286 0
-286 632 287 0
-286 -632 219 0
286 -632 -219 0
286 632 -287 0
287 633 -288 0
287 -633 -289 0
-287 -633 289 0
-287 633 288 0
288 -579 -634 0
288 -578 634 0
-288 578 634 0
-288 579 -634 0
289 -581 -634 0
289 -580 634 0
-289 580 634 0
-289 581 -634 0
290 632 -222 0
290 -632 -226 0
-290 -632 226 0
-290 632 222 0
291 631 -292 0
291 -631 -293 0
-291 -631 293 0
-291 631 292 0
292 632 -229 0
292 -632 -234 0
-292 -632 234 0
-292 632 229 0
293 -602 632 633 634 0
-293 -634 0
-293 -633 0
-293 602 0
-293 -632 0
294 -630 4 -301 0
294 630 4 -295 0
-294 -4 0
-294 -630 301 0
-294 630 295 0
295 631 -296 0
295 -631 -300 0
-295 -631 300 0
-295 631 296 0
296 -632 -241 0
296 632 -297 0
-296 632 297 0
-296 -632 241 0
297 633 -298 0
297 -633 -299 0
-297 -633 299 0
-297 633 298 0
298 -580 -634 0
298 -579 634 0
-298 579 634 0
-298 580 -634 0
299 -582 -634 0
299 -581 634 0
-299 581 634 0
-299 582 -634 0
300 632 -244 0
300 -632 -248 0
-300 -632 248 0
-300 632 244 0
301 631 -302 0
-301 -631 0
-301 302 0
302 632 -251 0
302 -632 -256 0
-302 -632 256 0
-302 632 251 0
303 602 -304 0
303 -602 -311 0
-303 -602 311 0
-303 602 304 0
304 -630 4 -309 0
304 630 4 -305 0
-304 -4 0
-304 -630 309 0
-304 630 305 0
305 631 -306 0
305 -631 -308 0
-305 -631 308 0
-305 631 306 0
306 -632 -263 0
306 632 -307 0
-306 632 307 0
-306 -632 263 0
307 -633 -220 0
307 633 -289 0
-307 633 289 0
-307 -633 220 0
308 632 -264 0
308 -632 -266 0
-308 -632 266 0
-308 632 264 0
309 631 -310 0
-309 -631 0
-309 310 0
310 632 -267 0
310 -632 -270 0
-310 -632 270 0
-310 632 267 0
311 -630 4 -316 0
311 630 4 -312 0
-311 -4 0
-311 -630 316 0
-311 630 312 0
312 631 -313 0
312 -631 -315 0
-312 -631 315 0
-312 631 313 0
313 -632 -274 0
313 632 -314 0
-313 632 314 0
-313 -632 274 0
314 -633 -242 0
314 633 -299 0
-314 633 299 0
-314 -633 242 0
315 632 -275 0
315 -632 -277 0
-315 -632 277 0
-315 632 275 0
316 631 -317 0
-316 -631 0
-316 317 0
317 632 -278 0
317 -632 -281 0
-317 -632 281 0
-317 632 278 0
318 66 -319 0
318 -66 -333 0
-318 -66 333 0
-318 66 319 0
319 68 -320 0
319 -68 -328 0
-319 -68 328 0
-319 68 320 0
320 602 -321 0
320 -602 -324 0
-320 -602 324 0
-320 602 321 0
321 -630 4 -323 0
321 630 4 -322 0
-321 -4 0
-321 -630 323 0
-321 630 322 0
322 631 -290 0
322 -631 -292 0
-322 -631 292 0
-322 631 290 0
323 631 -293 0
-323 -631 0
-323 293 0
324 325 -327 0
-324 -325 0
-324 327 0
-325 630 5 326 10 0
325 -630 0
325 -10 0
325 -326 0
325 -5 0
-326 603 604 0
326 -603 0
326 -604 0
327 631 -300 0
327 -631 -302 0
-327 -631 302 0
-327 631 300 0
328 602 -329 0
328 -602 -331 0
-328 -602 331 0
-328 602 329 0
329 325 -330 0
-329 -325 0
-329 330 0
330 631 -308 0
330 -631 -310 0
-330 -631 310 0
-330 631 308 0
331 325 -332 0
-331 -325 0
-331 332 0
332 631 -315 0
332 -631 -317 0
-332 -631 317 0
-332 631 315 0
333 68 -334 0
333 -68 -339 0
-333 -68 339 0
-333 68 334 0
334 602 -335 0
334 -602 -337 0
-334 -602 337 0
-334 602 335 0
335 325 -336 0
-335 -325 0
-335 336 0
336 631 -225 0
336 -631 -233 0
-336 -631 233 0
-336 631 225 0
337 325 -338 0
-337 -325 0
-337 338 0
338 631 -247 0
338 -631 -255 0
-338 -631 255 0
-338 631 247 0
339 602 -340 0
339 -602 -342 0
-339 -602 342 0
-339 602 340 0
340 325 -341 0
-340 -325 0
-340 341 0
341 631 -265 0
341 -631 -269 0
-341 -631 269 0
-341 631 265 0
342 325 -343 0
-342 -325 0
-342 343 0
343 631 -276 0
343 -631 -280 0
-343 -631 280 0
-343 631 276 0
344 64 -66 -352 0
344 64 66 -345 0
-344 -64 0
-344 -66 352 0
-344 66 345 0
345 68 -346 0
345 -68 -349 0
-345 -68 349 0
-345 68 346 0
346 602 -347 0
346 -602 -348 0
-346 -602 348 0
-346 602 347 0
347 -291 325 0
-347 291 0
-347 -325 0
348 -301 325 0
-348 301 0
-348 -325 0
349 602 -350 0
349 -602 -351 0
-349 -602 351 0
-349 602 350 0
350 -309 325 0
-350 309 0
-350 -325 0
351 -316 325 0
-351 316 0
-351 -325 0
352 -353 356 0
-352 353 0
-352 -356 0
-353 -602 68 355 0
-353 602 68 354 0
353 -68 0
353 -602 -355 0
353 602 -354 0
354 -232 325 0
-354 232 0
-354 -325 0
355 -254 325 0
-355 254 0
-355 -325 0
356 602 -68 357 0
356 -602 -68 358 0
-356 68 0
-356 -602 -358 0
-356 602 -357 0
357 -268 325 0
-357 268 0
-357 -325 0
358 -279 325 0
-358 279 0
-358 -325 0
-359 360 392 423 542 0
-359 -360 -392 423 542 0
359 -542 0
359 -360 392 0
359 -423 0
359 360 -392 0
360 -630 4 -381 0
360 630 4 -361 0
-360 -4 0
-360 -630 381 0
-360 630 361 0
361 631 -362 0
361 -631 -374 0
-361 -631 374 0
-361 631 362 0
362 632 -363 0
362 -632 -371 0
-362 -632 371 0
-362 632 363 0
363 633 -364 0
363 -633 -370 0
-363 -633 370 0
-363 633 364 0
364 -634 -106 0
364 634 -365 0
-364 634 365 0
-364 -634 106 0
365 54 107 -366 0
365 -54 107 -210 0
-365 -107 0
-365 -54 210 0
-365 54 366 0
366 -64 -183 0
366 64 -367 0
-366 64 367 0
-366 -64 183 0
367 -66 -164 0
367 66 -368 0
-367 66 368 0
-367 -66 164 0
368 -68 -140 0
368 68 -369 0
-368 68 369 0
-368 -68 140 0
369 -578 -602 0
369 -577 602 0
-369 577 602 0
-369 578 -602 0
370 634 -129 0
370 -634 -146 0
-370 -634 146 0
-370 634 129 0
371 633 -372 0
371 -633 -373 0
-371 -633 373 0
-371 633 372 0
372 634 -158 0
372 -634 -168 0
-372 -634 168 0
-372 634 158 0
373 634 -172 0
373 -634 -177 0
-373 -634 177 0
-373 634 172 0
374 632 -375 0
374 -632 -378 0
-374 -632 378 0
-374 632 375 0
375 633 -376 0
375 -633 -377 0
-375 -633 377 0
-375 633 376 0
376 634 -181 0
376 -634 -188 0
-376 -634 188 0
-376 634 181 0
377 634 -190 0
377 -634 -194 0
-377 -634 194 0
-377 634 190 0
378 633 -379 0
378 -633 -380 0
-378 -633 380 0
-378 633 379 0
379 634 -196 0
379 -634 -200 0
-379 -634 200 0
-379 634 196 0
380 634 -202 0
380 -634 -206 0
-380 -634 206 0
-380 634 202 0
381 631 -382 0
381 -631 632 -390 0
-381 -631 -632 0
-381 631 382 0
-381 -631 390 0
382 632 -383 0
382 -632 -387 0
-382 -632 387 0
-382 632 383 0
383 633 -384 0
383 -633 -386 0
-383 -633 386 0
-383 633 384 0
384 -634 385 0
384 -209 385 0
-384 -385 0
-384 634 209 0
385 -634 17 0
-385 634 0
-385 -17 0
386 -634 385 0
386 -75 385 0
-386 -385 0
-386 634 75 0
387 633 -388 0
387 -633 -389 0
-387 -633 389 0
-387 633 388 0
388 634 -83 0
388 -634 -91 0
-388 -634 91 0
-388 634 83 0
389 634 -94 0
389 -634 -96 0
-389 -634 96 0
-389 634 94 0
390 633 -391 0
-390 -633 0
-390 391 0
391 634 -96 0
-391 -634 0
-391 96 0
392 -54 107 -413 0
392 54 107 -393 0
-392 -107 0
-392 -54 413 0
-392 54 393 0
393 64 -394 0
393 -64 -406 0
-393 -64 406 0
-393 64 394 0
394 -66 -395 0
394 66 -398 0
-394 66 398 0
-394 -66 395 0
395 68 -396 0
395 -68 -397 0
-395 -68 397 0
-395 68 396 0
396 -602 -216 0
396 602 -311 0
-396 602 311 0
-396 -602 216 0
397 602 -238 0
397 -602 -260 0
-397 -602 260 0
-397 602 238 0
398 68 -399 0
398 -68 -405 0
-398 -68 405 0
-398 68 399 0
399 -602 -284 0
399 602 -400 0
-399 602 400 0
-399 -602 284 0
400 630 4 -401 0
400 -630 4 -343 0
-400 -4 0
-400 630 401 0
-400 -630 343 0
-401 -631 273 0
-401 631 402 0
401 -631 -273 0
401 631 -402 0
-402 632 403 0
-402 -632 314 0
402 -632 -314 0
402 632 -403 0
403 -633 -298 0
403 633 -404 0
-403 633 404 0
-403 -633 298 0
404 -578 -634 0
404 -577 634 0
-404 577 634 0
-404 578 -634 0
405 602 -294 0
405 -602 -304 0
-405 -602 304 0
-405 602 294 0
406 66 -407 0
406 -66 -410 0
-406 -66 410 0
-406 66 407 0
407 68 -408 0
407 -68 -409 0
-407 -68 409 0
-407 68 408 0
408 602 -271 0
408 -602 -321 0
-408 -602 321 0
-408 602 271 0
409 602 -324 0
409 -602 -329 0
-409 -602 329 0
-409 602 324 0
410 68 -411 0
410 -68 -412 0
-410 -68 412 0
-410 68 411 0
411 602 -331 0
411 -602 -335 0
-411 -602 335 0
-411 602 331 0
412 602 -337 0
412 -602 -340 0
-412 -602 340 0
-412 602 337 0
413 64 -414 0
413 -64 66 -421 0
-413 -64 -66 0
-413 64 414 0
-413 -64 421 0
414 66 -415 0
414 -66 -418 0
-414 -66 418 0
-414 66 415 0
415 68 -416 0
415 -68 -417 0
-415 -68 417 0
-415 68 416 0
416 602 -342 0
416 -602 -347 0
-416 -602 347 0
-416 602 342 0
417 602 -348 0
417 -602 -350 0
-417 -602 350 0
-417 602 348 0
418 68 -419 0
418 -68 -420 0
-418 -68 420 0
-418 68 419 0
419 602 -351 0
419 -602 -354 0
-419 -602 354 0
-419 602 351 0
420 602 -355 0
420 -602 -357 0
-420 -602 357 0
-420 602 355 0
421 68 -422 0
-421 -68 0
-421 422 0
422 602 -279 325 0
422 -602 -323 325 0
-422 -325 0
-422 -602 323 0
-422 602 279 0
-423 424 476 -524 -532 0
-423 -424 -476 -524 -532 0
-423 424 476 524 532 0
-423 -424 -476 524 532 0
423 424 -476 0
423 -424 476 0
423 524 -532 0
423 -524 532 0
424 -630 4 -469 0
424 630 4 -425 0
-424 -4 0
-424 -630 469 0
-424 630 425 0
425 631 -426 0
425 -631 -466 0
-425 -631 466 0
-425 631 426 0
426 632 -427 0
426 -632 -458 0
-426 -632 458 0
-426 632 427 0
427 -633 -428 0
427 633 -448 0
427 633 -441 0
-427 -633 428 0
-427 633 441 448 0
428 -634 -435 0
428 634 107 -429 0
-428 -634 435 0
-428 634 429 0
-428 634 -107 0
429 -54 -197 0
429 54 -430 0
-429 54 430 0
-429 -54 197 0
430 -64 -163 0
430 64 -431 0
-430 64 431 0
-430 -64 163 0
431 -66 -368 0
431 66 -432 0
-431 66 432 0
-431 -66 368 0
432 68 -433 0
432 -68 -434 0
-432 -68 434 0
-432 68 433 0
433 -574 -602 0
433 -573 602 0
-433 573 602 0
-433 574 -602 0
434 -576 -602 0
434 -575 602 0
-434 575 602 0
-434 576 -602 0
435 54 107 -436 0
435 -54 107 -201 0
-435 -107 0
-435 -54 201 0
-435 54 436 0
436 -64 -171 0
436 64 -437 0
-436 64 437 0
-436 -64 171 0
437 -66 -116 0
437 66 -438 0
-437 66 438 0
-437 -66 116 0
438 68 -439 0
438 -68 -440 0
-438 -68 440 0
-438 68 439 0
439 -575 -602 0
439 -574 602 0
-439 574 602 0
-439 575 -602 0
440 -577 -602 0
440 -576 602 0
-440 576 602 0
-440 577 -602 0
441 -634 107 -442 0
-441 634 0
-441 -107 0
-441 442 0
-442 -54 195 0
-442 54 443 0
442 -54 -195 0
442 54 -443 0
-443 -64 151 0
-443 64 444 0
443 -64 -151 0
443 64 -444 0
-444 -66 445 0
-444 66 446 447 0
444 -66 -445 0
444 66 -447 0
444 66 -446 0
445 -68 -117 0
445 68 -440 0
-445 68 440 0
-445 -68 117 0
446 -573 -86 0
-446 573 0
-446 86 0
-447 -26 68 0
-447 572 439 0
-447 -26 439 0
-447 572 68 0
447 -572 26 0
447 -68 -439 0
448 111 449 451 -452 0
-448 452 0
-448 -111 0
-448 -451 0
-448 -449 0
-449 108 44 450 113 0
449 -113 0
449 -450 0
449 -108 0
449 -44 0
450 -577 35 0
450 577 -35 0
-450 577 35 0
-450 -577 -35 0
-451 575 576 34 45 0
-451 -575 -576 -34 45 0
451 -575 34 0
451 576 -34 0
451 -45 0
451 575 -576 0
452 634 -54 -192 0
452 634 54 -453 0
-452 -634 0
-452 -54 192 0
-452 54 453 0
-453 64 454 0
-453 -64 138 0
453 -64 -138 0
453 64 -454 0
454 -66 -455 0
454 66 -457 0
454 66 -456 0
-454 -66 455 0
-454 66 456 457 0
455 -68 -369 0
455 68 -434 0
-455 68 434 0
-455 -68 369 0
456 -571 26 0
-456 571 0
-456 -26 0
-457 86 68 0
-457 572 433 0
-457 86 433 0
-457 572 68 0
457 -572 -86 0
457 -68 -433 0
458 -633 -364 0
458 633 -459 0
-458 633 459 0
-458 -633 364 0
459 634 -460 0
459 -634 -463 0
-459 -634 463 0
-459 634 460 0
460 54 107 -461 0
460 -54 107 -203 0
-460 -107 0
-460 -54 203 0
-460 54 461 0
461 -64 -175 0
461 64 -462 0
-461 64 462 0
-461 -64 175 0
462 -66 -139 0
462 66 -455 0
-462 66 455 0
-462 -66 139 0
463 54 107 -464 0
463 -54 107 -207 0
-463 -107 0
-463 -54 207 0
-463 54 464 0
464 -64 -180 0
464 64 -465 0
-464 64 465 0
-464 -64 180 0
465 -66 -152 0
465 66 -445 0
-465 66 445 0
-465 -66 152 0
466 632 -467 0
466 -632 -468 0
-466 -632 468 0
-466 632 467 0
467 633 -370 0
467 -633 -372 0
-467 -633 372 0
-467 633 370 0
468 633 -373 0
468 -633 -376 0
-468 -633 376 0
-468 633 373 0
469 631 -470 0
469 -631 -473 0
-469 -631 473 0
-469 631 470 0
470 632 -471 0
470 -632 -472 0
-470 -632 472 0
-470 632 471 0
471 633 -377 0
471 -633 -379 0
-471 -633 379 0
-471 633 377 0
472 633 -380 0
472 -633 -384 0
-472 -633 384 0
-472 633 380 0
473 632 -474 0
473 -632 -475 0
-473 -632 475 0
-473 632 474 0
474 633 -386 0
474 -633 -388 0
-474 -633 388 0
-474 633 386 0
475 633 -389 0
475 -633 -391 0
-475 -633 391 0
-475 633 389 0
476 -54 107 -517 0
476 54 107 -477 0
-476 -107 0
-476 -54 517 0
-476 54 477 0
477 64 -478 0
477 -64 -514 0
-477 -64 514 0
-477 64 478 0
478 -66 -479 0
478 66 -491 0
-478 -66 479 0
-478 66 491 0
479 -68 -399 0
479 68 -480 0
-479 68 480 0
-479 -68 399 0
480 602 -481 0
480 -602 -486 0
-480 -602 486 0
-480 602 481 0
481 630 4 -482 0
481 -630 4 -338 0
-481 -4 0
-481 630 482 0
-481 -630 338 0
-482 -631 240 0
-482 631 483 0
482 -631 -240 0
482 631 -483 0
-483 632 484 0
-483 -632 297 0
483 -632 -297 0
483 632 -484 0
484 -633 -404 0
484 633 -485 0
-484 633 485 0
-484 -633 404 0
485 -576 -634 0
485 -575 634 0
-485 575 634 0
-485 576 -634 0
486 630 4 -487 0
486 -630 4 -341 0
-486 -4 0
-486 630 487 0
-486 -630 341 0
-487 -631 262 0
-487 631 488 0
487 -631 -262 0
487 631 -488 0
-488 632 489 0
-488 -632 307 0
488 -632 -307 0
488 632 -489 0
489 -633 -288 0
489 633 -490 0
-489 633 490 0
-489 -633 288 0
490 -577 -634 0
490 -576 634 0
-490 576 634 0
-490 577 -634 0
-491 68 492 0
-491 -68 505 0
491 -68 -505 0
491 68 -492 0
-492 602 500 0
-492 -602 493 0
-492 602 -499 0
492 -602 -493 0
492 602 499 -500 0
493 630 4 -494 0
493 -630 4 -330 0
-493 -4 0
-493 630 494 0
-493 -630 330 0
-494 -631 306 0
-494 631 495 0
494 -631 -306 0
494 631 -495 0
-495 -632 489 0
-495 632 496 0
495 -632 -489 0
495 632 -496 0
-496 633 498 0
-496 -633 497 0
496 -633 -497 0
496 633 -498 0
497 -575 -634 0
497 -574 634 0
-497 574 634 0
-497 575 -634 0
498 -573 -634 0
498 -572 634 0
-498 572 634 0
-498 573 -634 0
-499 630 4 0
-499 4 -327 0
499 -4 0
499 -630 327 0
-500 630 -631 296 0
-500 630 631 501 0
500 -630 0
500 -631 -296 0
500 631 -501 0
501 -632 -484 0
501 632 -502 0
-501 -632 484 0
-501 632 502 0
-502 633 503 0
-502 -633 504 0
502 -633 -504 0
502 633 -503 0
-503 571 634 0
-503 572 -634 0
503 -572 -634 0
503 -571 634 0
504 -574 -634 0
504 -573 634 0
-504 573 634 0
-504 574 -634 0
505 -602 -510 0
505 602 4 -506 0
-505 -602 510 0
-505 602 -4 0
-505 602 506 0
-506 -630 332 0
-506 630 507 0
506 -630 -332 0
506 630 -507 0
-507 -631 313 0
-507 631 508 0
507 -631 -313 0
507 631 -508 0
-508 -632 403 0
-508 632 509 0
508 -632 -403 0
508 632 -509 0
-509 633 504 0
-509 -633 485 0
509 -633 -485 0
509 633 -504 0
510 630 4 -511 0
510 -630 4 -336 0
-510 -4 0
-510 630 511 0
-510 -630 336 0
-511 -631 218 0
-511 631 512 0
511 -631 -218 0
511 631 -512 0
-512 -632 287 0
-512 632 513 0
512 -632 -287 0
512 632 -513 0
-513 633 497 0
-513 -633 490 0
513 -633 -490 0
513 633 -497 0
514 66 -515 0
514 -66 -516 0
-514 -66 516 0
-514 66 515 0
515 -68 -396 0
515 68 -405 0
-515 68 405 0
-515 -68 396 0
516 68 -397 0
516 -68 -408 0
-516 -68 408 0
-516 68 397 0
517 64 -518 0
517 -64 -521 0
-517 -64 521 0
-517 64 518 0
518 66 -519 0
518 -66 -520 0
-518 -66 520 0
-518 66 519 0
519 68 -409 0
519 -68 -411 0
-519 -68 411 0
-519 68 409 0
520 68 -412 0
520 -68 -416 0
-520 -68 416 0
-520 68 412 0
521 66 -522 0
521 -66 -523 0
-521 -66 523 0
-521 66 522 0
522 68 -417 0
522 -68 -419 0
-522 -68 419 0
-522 68 417 0
523 68 -420 0
523 -68 -422 0
-523 -68 422 0
-523 68 420 0
524 -630 4 -529 0
524 630 4 -525 0
-524 -4 0
-524 -630 529 0
-524 630 525 0
525 631 -526 0
525 -631 -528 0
-525 -631 528 0
-525 631 526 0
526 -632 -363 0
526 632 -527 0
-526 632 527 0
-526 -632 363 0
527 633 -428 0
527 -633 -459 0
-527 -633 459 0
-527 633 428 0
528 632 -371 0
528 -632 -375 0
-528 -632 375 0
-528 632 371 0
529 631 -530 0
529 -631 -531 0
-529 -631 531 0
-529 631 530 0
530 632 -378 0
530 -632 -383 0
-530 -632 383 0
-530 632 378 0
531 632 -387 0
531 -632 -390 0
-531 -632 390 0
-531 632 387 0
532 -54 533 0
532 533 -539 541 0
-532 -533 0
-532 54 -541 0
-532 54 539 0
-533 42 58 534 537 0
533 -58 0
533 -534 0
533 -42 0
533 -537 0
534 -54 -64 536 0
534 -54 64 535 0
-534 54 0
-534 -64 -536 0
-534 64 -535 0
535 66 -410 0
535 -66 -415 0
-535 -66 415 0
-535 66 410 0
536 66 -418 0
536 -66 -421 0
-536 -66 421 0
-536 66 418 0
-537 45 98 112 538 0
537 -45 0
537 -538 0
537 -112 0
537 -98 0
-538 19 44 47 0
538 -19 0
538 -47 0
538 -44 0
-539 64 -66 398 0
-539 64 66 540 0
539 -64 0
539 -66 -398 0
539 66 -540 0
540 -68 -480 0
540 68 -505 0
-540 68 505 0
-540 -68 480 0
541 -64 -66 407 0
541 -64 66 395 0
-541 64 0
-541 -66 -407 0
-541 66 -395 0
-542 543 551 -559 -565 0
-542 -543 -551 -559 -565 0
-542 543 551 559 565 0
-542 -543 -551 559 565 0
542 543 -551 0
542 -543 551 0
542 559 -565 0
542 -559 565 0
543 -630 4 -549 0
543 630 4 -544 0
-543 -4 0
-543 -630 549 0
-543 630 544 0
544 631 -545 0
544 -631 -548 0
-544 -631 548 0
-544 631 545 0
545 -632 -104 0
545 632 -546 547 0
-545 632 -547 0
-545 -632 104 0
-545 632 546 0
-546 633 -634 460 0
-546 633 634 435 0
546 -633 0
546 -634 -460 0
546 634 -435 0
547 -633 634 463 0
547 -633 -634 365 0
-547 633 0
-547 -634 -365 0
-547 634 -463 0
548 632 -166 0
548 -632 -186 0
-548 -632 186 0
-548 632 166 0
549 631 -550 0
549 -631 632 -89 0
-549 -631 -632 0
-549 631 550 0
-549 -631 89 0
550 -632 -15 0
550 632 -198 0
-550 632 198 0
-550 -632 15 0
551 -54 107 -557 0
551 54 107 -552 0
-551 -107 0
-551 -54 557 0
-551 54 552 0
552 64 -553 0
552 -64 -556 0
-552 -64 556 0
-552 64 553 0
553 -66 -282 0
553 66 -555 0
553 66 -554 0
-553 -66 282 0
-553 66 554 555 0
554 602 68 -510 0
554 -602 68 -481 0
-554 -68 0
-554 -602 481 0
-554 602 510 0
555 602 -68 -486 0
555 -602 -68 -400 0
-555 68 0
-555 -602 400 0
-555 602 486 0
556 66 -214 0
556 -66 -319 0
-556 -66 319 0
-556 66 214 0
557 64 -558 0
557 -64 66 -352 0
-557 -64 -66 0
-557 64 558 0
-557 -64 352 0
558 66 -333 0
558 -66 -345 0
-558 -66 345 0
-558 66 333 0
559 -630 4 -563 0
559 630 4 -560 0
-559 -4 0
-559 -630 563 0
-559 630 560 0
560 631 -561 0
560 -631 -562 0
-560 -631 562 0
-560 631 561 0
561 632 -458 0
561 -632 -467 0
-561 -632 467 0
-561 632 458 0
562 632 -468 0
562 -632 -471 0
-562 -632 471 0
-562 632 468 0
563 631 -564 0
563 -631 632 -475 0
-563 -631 -632 0
-563 631 564 0
-563 -631 475 0
564 632 -472 0
564 -632 -474 0
-564 -632 474 0
-564 632 472 0
565 -54 107 -569 0
565 54 107 -566 0
-565 -107 0
-565 -54 569 0
-565 54 566 0
566 64 -567 0
566 -64 -568 0
-566 -64 568 0
-566 64 567 0
567 66 -479 0
567 -66 -515 0
-567 -66 515 0
-567 66 479 0
568 66 -516 0
568 -66 -519 0
-568 -66 519 0
-568 66 516 0
569 64 -570 0
569 -64 66 -523 0
-569 -64 -66 0
-569 64 570 0
-569 -64 523 0
570 66 -520 0
570 -66 -522 0
-570 -66 522 0
-570 66 520 0
-635 0
2 0

